TOUR_SECTION
1
27
3
81
109
83
166
149
141
33
92
76
183
117
47
56
99
185
100
31
63
23
107
45
122
170
198
61
105
22
85
70
190
84
116
110
62
189
60
153
57
52
186
36
118
37
94
197
191
196
89
78
24
195
96
40
77
123
201
194
169
132
2
176
88
161
51
177
156
124
104
200
135
53
157
115
80
154
145
128
179
151
142
95
192
137
188
150
87
68
112
64
67
175
29
146
8
173
39
38
21
164
126
193
178
46
103
168
108
134
65
182
113
54
98
159
55
73
147
148
140
34
30
13
138
102
139
163
9
162
7
199
165
133
71
69
155
129
82
12
121
20
90
79
125
160
25
4
187
184
43
44
32
167
97
180
152
14
91
114
18
17
6
130
58
93
42
11
119
19
16
143
171
174
127
49
72
41
48
74
59
181
172
26
50
28
144
75
106
111
5
35
120
131
66
158
101
136
86
10
15
-1
EOF